&CONTROL
  calculation = 'bands',
  outdir = './',
  prefix = 'graphene',
  pseudo_dir = './',
  restart_mode = 'from_scratch',
/
&SYSTEM
  ecutwfc = 45.0,
  ibrav = 0,
  nat = 8,
  ntyp = 1,
  nbnd = 40
  lspinorb = .TRUE.,
  noncolin = .TRUE.,
  occupations = 'smearing',
  smearing = 'mp',
  starting_magnetization = 0.0,
  degauss = 0.02
/
&ELECTRONS
  conv_thr = 1d-08,
/
ATOMIC_SPECIES
  C  12.0107   C.upf
ATOMIC_POSITIONS {crystal}
  C 0.166667 0.166667 0.000000
  C 0.166667 0.666667 0.000000
  C 0.666667 0.166667 0.000000
  C 0.666667 0.666667 0.000000
  C 0.333333 0.333333 0.000000
  C 0.333333 0.833333 0.000000
  C 0.833333 0.333333 0.000000
  C 0.833333 0.833333 0.000000
CELL_PARAMETERS {angstrom}
  4.920000 0.000000 0.000000
  2.460000 4.260845 0.000000
  0.000000 0.000000 20.000000
K_POINTS crystal_b
2
0.0 0.0 0.0 50
1.3333333333 0.6666666667 0.0 50
