&CONTROL
  calculation = 'scf',
  outdir = './',
  prefix = 'graphene',
  pseudo_dir = './',
  restart_mode = 'from_scratch',
/
&SYSTEM
  ecutwfc = 45.0,
  ibrav = 0,
  nat = 8,
  ntyp = 1,
  lspinorb = .TRUE.,
  noncolin = .TRUE.,
  occupations = 'smearing',
  smearing = 'mp',
  degauss = 0.02
  starting_magnetization = 0.0,
/
&ELECTRONS
  conv_thr = 1d-08,
/
ATOMIC_SPECIES
  C  12.0107   C.upf
ATOMIC_POSITIONS {crystal}
  C 0.166667 0.166667 0.000000
  C 0.166667 0.666667 0.000000
  C 0.666667 0.166667 0.000000
  C 0.666667 0.666667 0.000000
  C 0.333333 0.333333 0.000000
  C 0.333333 0.833333 0.000000
  C 0.833333 0.333333 0.000000
  C 0.833333 0.833333 0.000000
CELL_PARAMETERS {angstrom}
  4.920000 0.000000 0.000000
  2.460000 4.260845 0.000000
  0.000000 0.000000 20.000000
K_POINTS automatic
12 12 1 0 0 0
