&inputpp
  outdir = './'
  prefix = 'MAPI'
  first_band = 1
  last_band = 210
  SC(1,:) =  1, 1, 0
  SC(2,:) = -1, 1, 0
  SC(3,:) =  0, 0, 2
  sumover_G_uc = F
/
